*NAME:         mod013
*ROWS:         62
*COLUMNS:      96
*INTEGER:      48
*NONZERO:      192
*BEST SOLN:    280.95 (opt)
*LP SOLN:      256.02
*SOURCE:       Laurence A. Wolsey (University of Louvain)
*              Laurence A. Wolsey (University of Louvain)
*              John J. Forrest (IBM)
*APPLICATION:  NL network
*COMMENTS:     all integer variables are binary
*      
*
NAME          MOD013
ROWS
 N  R1.     
 E  R2.     
 E  R3.     
 E  R4.     
 E  R5.     
 E  R6.     
 E  R7.     
 E  R8.     
 E  R9.     
 E  R10.    
 E  R11.    
 E  R12.    
 E  R13.    
 E  R14.    
 E  R15.    
 L  R16.    
 L  R17.    
 L  R18.    
 L  R19.    
 L  R20.    
 L  R21.    
 L  R22.    
 L  R23.    
 L  R24.    
 L  R25.    
 L  R26.    
 L  R27.    
 L  R28.    
 L  R29.    
 L  R30.    
 L  R31.    
 L  R32.    
 L  R33.    
 L  R34.    
 L  R35.    
 L  R36.    
 L  R37.    
 L  R38.    
 L  R39.    
 L  R40.    
 L  R41.    
 L  R42.    
 L  R43.    
 L  R44.    
 L  R45.    
 L  R46.    
 L  R47.    
 L  R48.    
 L  R49.    
 L  R50.    
 L  R51.    
 L  R52.    
 L  R53.    
 L  R54.    
 L  R55.    
 L  R56.    
 L  R57.    
 L  R58.    
 L  R59.    
 L  R60.    
 L  R61.    
 L  R62.    
 L  R63.    
COLUMNS
    C1.       R1.               0.69   R2.                  1
    C1.       R8.                  1   R16.                 1
    C2.       R1.               0.64   R2.                  1
    C2.       R9.                  1   R17.                 1
    C3.       R1.               0.71   R2.                  1
    C3.       R10.                 1   R18.                 1
    C4.       R1.               0.79   R2.                  1
    C4.       R11.                 1   R19.                 1
    C5.       R1.                1.7   R2.                  1
    C5.       R12.                 1   R20.                 1
    C6.       R1.               2.83   R2.                  1
    C6.       R13.                 1   R21.                 1
    C7.       R1.               2.02   R2.                  1
    C7.       R14.                 1   R22.                 1
    C8.       R1.               5.64   R2.                  1
    C8.       R15.                 1   R23.                 1
    C9.       R1.               1.01   R3.                  1
    C9.       R8.                  1   R24.                 1
    C10.      R1.               0.75   R3.                  1
    C10.      R9.                  1   R25.                 1
    C11.      R1.               0.88   R3.                  1
    C11.      R10.                 1   R26.                 1
    C12.      R1.               0.59   R3.                  1
    C12.      R11.                 1   R27.                 1
    C13.      R1.                1.5   R3.                  1
    C13.      R12.                 1   R28.                 1
    C14.      R1.               2.63   R3.                  1
    C14.      R13.                 1   R29.                 1
    C15.      R1.               2.26   R3.                  1
    C15.      R14.                 1   R30.                 1
    C16.      R1.               5.64   R3.                  1
    C16.      R15.                 1   R31.                 1
    C17.      R1.               1.05   R4.                  1
    C17.      R8.                  1   R32.                 1
    C18.      R1.               1.06   R4.                  1
    C18.      R9.                  1   R33.                 1
    C19.      R1.               1.08   R4.                  1
    C19.      R10.                 1   R34.                 1
    C20.      R1.               0.64   R4.                  1
    C20.      R11.                 1   R35.                 1
    C21.      R1.               1.22   R4.                  1
    C21.      R12.                 1   R36.                 1
    C22.      R1.               2.37   R4.                  1
    C22.      R13.                 1   R37.                 1
    C23.      R1.               1.66   R4.                  1
    C23.      R14.                 1   R38.                 1
    C24.      R1.               5.64   R4.                  1
    C24.      R15.                 1   R39.                 1
    C25.      R1.               1.94   R5.                  1
    C25.      R8.                  1   R40.                 1
    C26.      R1.                1.5   R5.                  1
    C26.      R9.                  1   R41.                 1
    C27.      R1.               1.56   R5.                  1
    C27.      R10.                 1   R42.                 1
    C28.      R1.               1.22   R5.                  1
    C28.      R11.                 1   R43.                 1
    C29.      R1.               1.98   R5.                  1
    C29.      R12.                 1   R44.                 1
    C30.      R1.               1.98   R5.                  1
    C30.      R13.                 1   R45.                 1
    C31.      R1.               1.36   R5.                  1
    C31.      R14.                 1   R46.                 1
    C32.      R1.               6.99   R5.                  1
    C32.      R15.                 1   R47.                 1
    C33.      R1.               1.61   R6.                  1
    C33.      R8.                  1   R48.                 1
    C34.      R1.                1.4   R6.                  1
    C34.      R9.                  1   R49.                 1
    C35.      R1.               1.61   R6.                  1
    C35.      R10.                 1   R50.                 1
    C36.      R1.               1.33   R6.                  1
    C36.      R11.                 1   R51.                 1
    C37.      R1.               1.68   R6.                  1
    C37.      R12.                 1   R52.                 1
    C38.      R1.               2.83   R6.                  1
    C38.      R13.                 1   R53.                 1
    C39.      R1.               1.54   R6.                  1
    C39.      R14.                 1   R54.                 1
    C40.      R1.               4.26   R6.                  1
    C40.      R15.                 1   R55.                 1
    C41.      R1.               5.29   R7.                  1
    C41.      R8.                  1   R56.                 1
    C42.      R1.               5.94   R7.                  1
    C42.      R9.                  1   R57.                 1
    C43.      R1.               6.06   R7.                  1
    C43.      R10.                 1   R58.                 1
    C44.      R1.               5.29   R7.                  1
    C44.      R11.                 1   R59.                 1
    C45.      R1.               5.96   R7.                  1
    C45.      R12.                 1   R60.                 1
    C46.      R1.               6.77   R7.                  1
    C46.      R13.                 1   R61.                 1
    C47.      R1.               5.08   R7.                  1
    C47.      R14.                 1   R62.                 1
    C48.      R1.               0.31   R7.                  1
    C48.      R15.                 1   R63.                 1
    MARK0000  'MARKER'                 'INTORG'
    C50.      R1.                 11   R16.               -35
    C51.      R1.                 16   R17.               -30
    C52.      R1.                 18   R18.               -25
    C53.      R1.                 17   R19.               -20
    C54.      R1.                 10   R20.               -15
    C55.      R1.                 20   R21.               -10
    C56.      R1.                 17   R22.               -10
    C57.      R1.                 13   R23.                -5
    C58.      R1.                 14   R24.               -35
    C59.      R1.                 17   R25.               -30
    C60.      R1.                 17   R26.               -25
    C61.      R1.                 13   R27.               -20
    C62.      R1.                 15   R28.               -15
    C63.      R1.                 13   R29.               -10
    C64.      R1.                 16   R30.               -10
    C65.      R1.                 11   R31.                -5
    C66.      R1.                 12   R32.               -30
    C67.      R1.                 13   R33.               -30
    C68.      R1.                 20   R34.               -25
    C69.      R1.                 17   R35.               -20
    C70.      R1.                 13   R36.               -15
    C71.      R1.                 15   R37.               -10
    C72.      R1.                 16   R38.               -10
    C73.      R1.                 13   R39.                -5
    C74.      R1.                 16   R40.               -20
    C75.      R1.                 19   R41.               -20
    C76.      R1.                 16   R42.               -20
    C77.      R1.                 11   R43.               -20
    C78.      R1.                 15   R44.               -15
    C79.      R1.                 12   R45.               -10
    C80.      R1.                 18   R46.               -10
    C81.      R1.                 12   R47.                -5
    C82.      R1.                 19   R48.               -10
    C83.      R1.                 18   R49.               -10
    C84.      R1.                 15   R50.               -10
    C85.      R1.                 16   R51.               -10
    C86.      R1.                 12   R52.               -10
    C87.      R1.                 14   R53.               -10
    C88.      R1.                 20   R54.               -10
    C89.      R1.                 19   R55.                -5
    C90.      R1.                 13   R56.                -5
    C91.      R1.                 20   R57.                -5
    C92.      R1.                 20   R58.                -5
    C93.      R1.                 17   R59.                -5
    C94.      R1.                 15   R60.                -5
    C95.      R1.                 12   R61.                -5
    C96.      R1.                 14   R62.                -5
    C97.      R1.                 11   R63.                -5
    MARK0001  'MARKER'                 'INTEND'
RHS
    RHS1.     R2.                 45   R3.                 40
    RHS1.     R4.                 30   R5.                 20
    RHS1.     R6.                 10   R7.                  5
    RHS1.     R8.                 35   R9.                 30
    RHS1.     R10.                25   R11.                20
    RHS1.     R12.                15   R13.                10
    RHS1.     R14.                10   R15.                 5
BOUNDS
 UP bnd       C50.                 1
 UP bnd       C51.                 1
 UP bnd       C52.                 1
 UP bnd       C53.                 1
 UP bnd       C54.                 1
 UP bnd       C55.                 1
 UP bnd       C56.                 1
 UP bnd       C57.                 1
 UP bnd       C58.                 1
 UP bnd       C59.                 1
 UP bnd       C60.                 1
 UP bnd       C61.                 1
 UP bnd       C62.                 1
 UP bnd       C63.                 1
 UP bnd       C64.                 1
 UP bnd       C65.                 1
 UP bnd       C66.                 1
 UP bnd       C67.                 1
 UP bnd       C68.                 1
 UP bnd       C69.                 1
 UP bnd       C70.                 1
 UP bnd       C71.                 1
 UP bnd       C72.                 1
 UP bnd       C73.                 1
 UP bnd       C74.                 1
 UP bnd       C75.                 1
 UP bnd       C76.                 1
 UP bnd       C77.                 1
 UP bnd       C78.                 1
 UP bnd       C79.                 1
 UP bnd       C80.                 1
 UP bnd       C81.                 1
 UP bnd       C82.                 1
 UP bnd       C83.                 1
 UP bnd       C84.                 1
 UP bnd       C85.                 1
 UP bnd       C86.                 1
 UP bnd       C87.                 1
 UP bnd       C88.                 1
 UP bnd       C89.                 1
 UP bnd       C90.                 1
 UP bnd       C91.                 1
 UP bnd       C92.                 1
 UP bnd       C93.                 1
 UP bnd       C94.                 1
 UP bnd       C95.                 1
 UP bnd       C96.                 1
 UP bnd       C97.                 1
ENDATA
